========================================================== 
File name: C:\DEGR\assets\definitions\MSRCPSP_Gen\200_20_512_5_C.def
Creation date: Wed May 03 10:48:50 CEST 2023
Website: http://imopse.ii.pwr.edu.pl/ 
Reference: 
Myszkowski P. B., Skowronski M. E., Olech L., Oslizlo K., 
Hybrid Ant Colony Optimization in solving Multi-Skill Resource-Constrained Project Scheduling Problem, 
Soft Computing, DOI: DOI 10.1007/s00500-014-1455-x 
========================================================== 
General characteristics: 
Tasks: 200
Resources: 20
Precedence relations: 504
Number of skill types: 5
========================================================== 
ResourceID 	 Salary 	 Skills 
1	 	 	64.4	 	 Q4: 0 	 
2	 	 	55.6	 	 Q0: 1 	 
3	 	 	79.8	 	 Q1: 1 	  Q3: 2 	 
4	 	 	59.5	 	 Q0: 0 	  Q2: 3 	  Q3: 2 	 
5	 	 	13.6	 	 Q2: 0 	  Q4: 2 	 
6	 	 	38.0	 	 Q3: 2 	  Q4: 3 	  Q2: 2 	 
7	 	 	42.8	 	 Q4: 3 	 
8	 	 	19.5	 	 Q3: 2 	  Q4: 2 	 
9	 	 	59.2	 	 Q3: 1 	 
10	 	 	28.0	 	 Q2: 1 	  Q0: 2 	  Q4: 0 	 
11	 	 	97.8	 	 Q4: 1 	  Q3: 1 	  Q0: 3 	 
12	 	 	21.7	 	 Q1: 3 	  Q2: 0 	  Q0: 2 	  Q3: 3 	 
13	 	 	11.5	 	 Q0: 2 	 
14	 	 	27.5	 	 Q2: 3 	  Q4: 1 	  Q1: 1 	  Q0: 3 	 
15	 	 	34.8	 	 Q3: 3 	  Q1: 1 	  Q0: 2 	  Q2: 3 	 
16	 	 	92.2	 	 Q2: 0 	  Q3: 3 	  Q1: 2 	 
17	 	 	60.2	 	 Q3: 0 	  Q0: 1 	 
18	 	 	71.3	 	 Q2: 3 	 
19	 	 	86.7	 	 Q1: 3 	  Q4: 1 	 
20	 	 	95.0	 	 Q1: 2 	  Q4: 0 	  Q3: 3 	  Q0: 3 	 
========================================================== 
TaskID 	 Duration 	 Skill 	 Predecessor IDs 
1	32	Q0:	1
2	11	Q1:	2	1
3	29	Q1:	1
4	24	Q0:	2
5	34	Q4:	3
6	19	Q3:	1
7	9	Q3:	0	6	5
8	9	Q1:	2
9	31	Q2:	3	8
10	38	Q4:	3	9	1
11	21	Q3:	1
12	16	Q4:	2
13	14	Q2:	2
14	40	Q3:	0
15	37	Q0:	0
16	25	Q1:	2
17	17	Q3:	0
18	23	Q4:	2	10
19	10	Q3:	2
20	36	Q3:	1
21	33	Q2:	0
22	10	Q4:	3
23	17	Q0:	2
24	22	Q1:	1	15
25	11	Q1:	2
26	31	Q0:	0	17
27	17	Q0:	3
28	17	Q4:	3	7
29	29	Q1:	2
30	10	Q4:	0	28
31	36	Q4:	1	6	1
32	23	Q0:	1
33	38	Q0:	2
34	13	Q4:	1	11	24
35	16	Q0:	0
36	24	Q3:	1	29	25
37	39	Q3:	1
38	38	Q1:	1
39	39	Q3:	2
40	31	Q1:	1	39	11
41	15	Q0:	1
42	12	Q0:	3	11	34	1
43	27	Q3:	1	5
44	26	Q2:	2	22
45	26	Q3:	0	9
46	15	Q4:	2	13
47	26	Q0:	3	20	8
48	11	Q2:	2	10
49	28	Q4:	1	40	2
50	13	Q1:	1	31
51	32	Q0:	2	32
52	19	Q3:	2	30
53	31	Q1:	3	40
54	24	Q2:	3	37	19
55	22	Q0:	1	41	15
56	18	Q2:	1	53
57	34	Q4:	1	37
58	23	Q4:	0	26	57
59	25	Q0:	3	18
60	11	Q0:	2	59	53
61	18	Q1:	3	44	57	56
62	12	Q4:	3	36	27
63	11	Q3:	0	17
64	39	Q3:	0	35	57
65	40	Q4:	1	20	28
66	19	Q0:	0	41	58	39
67	30	Q0:	0	63
68	30	Q1:	1	43
69	36	Q0:	2	54	52
70	20	Q4:	3	31	69
71	27	Q0:	0	25	60	8	37
72	20	Q0:	1	3	28	16
73	29	Q0:	0	10
74	39	Q1:	2	8	23	20	29	55
75	36	Q1:	1	7
76	20	Q3:	3	46	61	22	52	43
77	24	Q0:	1	64	68
78	21	Q4:	2	36	24
79	29	Q0:	3	1	29	66
80	35	Q4:	2
81	28	Q3:	2	26	56	2
82	40	Q1:	3	44
83	23	Q0:	1	18
84	10	Q0:	2	75
85	20	Q4:	2	11	60	77	47	14
86	33	Q2:	2	11	61
87	38	Q1:	3	2
88	29	Q4:	3	29	45	67	16	85	53	75	78
89	27	Q0:	1	5	73
90	20	Q3:	1	27	49	58
91	34	Q2:	0	70	66	13	87
92	27	Q0:	0	43
93	30	Q2:	2	86	21
94	27	Q3:	2	17	13
95	30	Q4:	1	80	30	63
96	34	Q2:	2	79
97	15	Q4:	2	27	3	91	84
98	16	Q4:	3	18
99	15	Q2:	3	84	26
100	36	Q1:	1	5	82
101	34	Q0:	2	21	3	89
102	15	Q0:	1	79	92
103	22	Q1:	2	11
104	32	Q2:	3	47	92	50	37
105	11	Q0:	0	51
106	34	Q2:	2	95	30	72
107	21	Q4:	3	23	82	81	103	55
108	14	Q4:	0	26
109	15	Q2:	1	10	5
110	16	Q0:	3	71	19
111	11	Q3:	3	18
112	35	Q1:	3	48	16
113	32	Q4:	1	15	77	46	18	38
114	16	Q4:	2	57	104
115	27	Q3:	1	46
116	24	Q3:	3	48
117	28	Q1:	2	8
118	22	Q4:	2	92	91	24
119	26	Q3:	1	52	30
120	38	Q2:	3	17	42	58	33	24	91
121	26	Q3:	0	6	3	102	30	119	93
122	34	Q4:	1	97	103	41
123	13	Q4:	2	76
124	28	Q0:	3	121	36	79
125	12	Q4:	3	96	77	73	117	15
126	10	Q4:	2	44	64	94	45	15	83
127	12	Q0:	3	78	66	116	115
128	24	Q0:	2	99	67
129	22	Q3:	0	59	106	39	29
130	34	Q3:	2	61	105
131	24	Q0:	3	40	65	66	58
132	13	Q4:	0	52
133	17	Q2:	2	124	28	102	41
134	35	Q4:	1	102	94	56	36	70
135	36	Q1:	1	2	83	57
136	13	Q3:	2	35	127	64	12	126	56
137	16	Q3:	0	100	46	32	13	54
138	20	Q0:	1	48	97	26
139	14	Q1:	2	72	110	131	28	109
140	36	Q2:	0	42
141	36	Q0:	1	101	129
142	35	Q4:	0	118	80	21	81	28	101
143	37	Q1:	1	116	69	86	34	30	81	41
144	26	Q4:	0	128	103
145	35	Q4:	3	17	133
146	12	Q4:	1	22
147	17	Q4:	1	46	125	30	32
148	10	Q1:	1	95	93
149	11	Q3:	2	33	106
150	37	Q4:	0	52	148	105	126
151	24	Q4:	1
152	37	Q3:	0	45	56	53	48	28	11	50
153	38	Q0:	3
154	23	Q0:	0	29	122	145	123	94	119	143	105
155	32	Q3:	1	63	149
156	32	Q3:	3	23	18	142	87	73	30
157	31	Q1:	2	22	61	93	15	104	115	60	80
158	34	Q3:	3	70	79	140
159	35	Q2:	3	53	124	50	102	108	127
160	25	Q1:	1	32
161	33	Q1:	2	76	80	108
162	16	Q3:	1	65	40	124	97	139	24
163	27	Q2:	1	126	58
164	31	Q1:	3	11	103	158	17	150	144	129
165	39	Q2:	2	122
166	14	Q3:	0	31
167	23	Q2:	0	70	93	41	21	5
168	19	Q1:	2	54	43	37	115	11	64
169	17	Q4:	2	123	78	15
170	17	Q4:	2	159	61	30
171	10	Q4:	1	52	108	37	80	118
172	12	Q4:	1	72	127	134	98	103
173	20	Q2:	0	114
174	31	Q0:	0	16	43	75	15	120	29	17
175	33	Q3:	1	150	72	152	58
176	25	Q3:	3	147	135	102	103	31
177	14	Q3:	3	86	77	42	113	139
178	35	Q4:	0	49	50	175	30	20
179	32	Q0:	2	85
180	10	Q1:	1	172	6	41	71
181	9	Q3:	0	58	126	177	111
182	18	Q4:	2	120	93	149	55	71	109	49	115
183	13	Q2:	3	135	131	59	91	4	8	153	24	170
184	36	Q2:	3	183	6	102	100	3	20
185	37	Q2:	3	159	3	151	29	161	59
186	38	Q4:	3	91	58	66
187	23	Q3:	1	115	170	12	41	2
188	38	Q1:	1	71	65
189	24	Q0:	2	57	141	12	168
190	10	Q4:	0	38	89	3	9
191	33	Q4:	2	188	106	132
192	16	Q3:	2	167	134	79	91	87
193	38	Q4:	3	94	190	74
194	13	Q1:	2	129	146	138	16	187	122	165
195	11	Q3:	1	56	147	31
196	39	Q4:	1	16	14	36
197	36	Q4:	2	60	191	147	86	71
198	25	Q1:	1	48	192
199	35	Q4:	1	18	29	108	167
200	15	Q4:	0	48	180	35	87	174
========================================================== 